NAME          
ROWS
 N  OBJ
 L  c2
 L  c3
 L  c4
 L  c5
 L  c6
 L  c7
 L  c8
 L  c9
 L  c10
 L  c11
 G  c1
COLUMNS
    ss[1]     c1        1
    ss[1]     OBJ       1000
    s[1]      c2        1
    s[1]      OBJ       -1000
    s[2]      c3        1
    s[2]      OBJ       -1000
    s[3]      c4        1
    s[3]      OBJ       -1000
    s[4]      c5        1
    s[4]      OBJ       -1000
    s[5]      c6        1
    s[5]      OBJ       -1000
    s[6]      c7        1
    s[6]      OBJ       -1000
    s[7]      c8        1
    s[7]      OBJ       -1000
    s[8]      c9        1
    s[8]      OBJ       -1000
    s[9]      c10       1
    s[9]      OBJ       -1000
    s[10]     c11       1
    s[10]     OBJ       -1000
    MARKER    'MARKER'                 'INTORG'
    x[1]      c2        867
    x[1]      c3        314
    x[1]      c4        98
    x[1]      c5        908
    x[1]      c6        979
    x[1]      c7        549
    x[1]      c8        467
    x[1]      c9        208
    x[1]      c10       171
    x[1]      c11       147
    x[1]      c1        556
    x[1]      OBJ       -272
    x[2]      c2        10
    x[2]      c3        862
    x[2]      c4        126
    x[2]      c5        212
    x[2]      c6        583
    x[2]      c7        638
    x[2]      c8        513
    x[2]      c9        543
    x[2]      c10       678
    x[2]      c11       206
    x[2]      c1        736
    x[2]      OBJ       -17
    x[3]      c2        395
    x[3]      c3        12
    x[3]      c4        675
    x[3]      c5        115
    x[3]      c6        10
    x[3]      c7        357
    x[3]      c8        324
    x[3]      c9        532
    x[3]      c10       207
    x[3]      c11       37
    x[3]      c1        301
    x[3]      OBJ       -232
    x[4]      c2        982
    x[4]      c3        411
    x[4]      c4        335
    x[4]      c5        907
    x[4]      c6        768
    x[4]      c7        763
    x[4]      c8        225
    x[4]      c9        568
    x[4]      c10       964
    x[4]      c11       710
    x[4]      c1        111
    x[4]      OBJ       -753
    x[5]      c2        889
    x[5]      c3        31
    x[5]      c4        543
    x[5]      c5        394
    x[5]      c6        411
    x[5]      c7        3
    x[5]      c8        105
    x[5]      c9        603
    x[5]      c10       582
    x[5]      c11       38
    x[5]      c1        704
    x[5]      OBJ       283
    x[6]      c2        789
    x[6]      c3        797
    x[6]      c4        894
    x[6]      c5        275
    x[6]      c6        52
    x[6]      c7        492
    x[6]      c8        194
    x[6]      c9        865
    x[6]      c10       671
    x[6]      c11       456
    x[6]      c1        408
    x[6]      OBJ       -572
    x[7]      c2        495
    x[7]      c3        94
    x[7]      c4        928
    x[7]      c5        91
    x[7]      c6        184
    x[7]      c7        822
    x[7]      c8        281
    x[7]      c9        751
    x[7]      c10       879
    x[7]      c11       680
    x[7]      c1        163
    x[7]      OBJ       -363
    x[8]      c2        725
    x[8]      c3        513
    x[8]      c4        934
    x[8]      c5        780
    x[8]      c6        85
    x[8]      c7        140
    x[8]      c8        14
    x[8]      c9        20
    x[8]      c10       253
    x[8]      c11       573
    x[8]      c1        315
    x[8]      OBJ       -326
    x[9]      c2        807
    x[9]      c3        512
    x[9]      c4        26
    x[9]      c5        222
    x[9]      c6        203
    x[9]      c7        325
    x[9]      c8        673
    x[9]      c9        699
    x[9]      c10       130
    x[9]      c11       594
    x[9]      c1        670
    x[9]      OBJ       -114
    x[10]     c2        287
    x[10]     c3        544
    x[10]     c4        551
    x[10]     c5        616
    x[10]     c6        373
    x[10]     c7        978
    x[10]     c8        240
    x[10]     c9        76
    x[10]     c10       854
    x[10]     c11       850
    x[10]     c1        457
    x[10]     OBJ       -471
    x[11]     c2        588
    x[11]     c3        756
    x[11]     c4        493
    x[11]     c5        728
    x[11]     c6        296
    x[11]     c7        888
    x[11]     c8        244
    x[11]     c9        1000
    x[11]     c10       468
    x[11]     c11       876
    x[11]     c1        357
    x[11]     OBJ       -530
    x[12]     c2        462
    x[12]     c3        36
    x[12]     c4        673
    x[12]     c5        687
    x[12]     c6        478
    x[12]     c7        971
    x[12]     c8        42
    x[12]     c9        593
    x[12]     c10       651
    x[12]     c11       816
    x[12]     c1        916
    x[12]     OBJ       -4
    x[13]     c2        856
    x[13]     c3        988
    x[13]     c4        430
    x[13]     c5        954
    x[13]     c6        300
    x[13]     c7        157
    x[13]     c8        952
    x[13]     c9        899
    x[13]     c10       381
    x[13]     c11       418
    x[13]     c1        614
    x[13]     OBJ       -358
    x[14]     c2        980
    x[14]     c3        980
    x[14]     c4        715
    x[14]     c5        580
    x[14]     c6        726
    x[14]     c7        499
    x[14]     c8        739
    x[14]     c9        423
    x[14]     c10       741
    x[14]     c11       855
    x[14]     c1        60
    x[14]     OBJ       -1116
    x[15]     c2        678
    x[15]     c3        672
    x[15]     c4        771
    x[15]     c5        273
    x[15]     c6        880
    x[15]     c7        862
    x[15]     c8        482
    x[15]     c9        738
    x[15]     c10       754
    x[15]     c11       518
    x[15]     c1        373
    x[15]     OBJ       -731
    x[16]     c2        987
    x[16]     c3        680
    x[16]     c4        865
    x[16]     c5        49
    x[16]     c6        830
    x[16]     c7        453
    x[16]     c8        562
    x[16]     c9        420
    x[16]     c10       276
    x[16]     c11       227
    x[16]     c1        182
    x[16]     OBJ       -677
    x[17]     c2        160
    x[17]     c3        706
    x[17]     c4        520
    x[17]     c5        381
    x[17]     c6        207
    x[17]     c7        22
    x[17]     c8        654
    x[17]     c9        822
    x[17]     c10       880
    x[17]     c11       326
    x[17]     c1        129
    x[17]     OBJ       -432
    x[18]     c2        368
    x[18]     c3        822
    x[18]     c4        544
    x[18]     c5        288
    x[18]     c6        202
    x[18]     c7        694
    x[18]     c8        961
    x[18]     c9        330
    x[18]     c10       214
    x[18]     c11       732
    x[18]     c1        767
    x[18]     OBJ       -195
    x[19]     c2        197
    x[19]     c3        827
    x[19]     c4        697
    x[19]     c5        980
    x[19]     c6        893
    x[19]     c7        132
    x[19]     c8        468
    x[19]     c9        670
    x[19]     c10       46
    x[19]     c11       447
    x[19]     c1        896
    x[19]     OBJ       -58
    x[20]     c2        8
    x[20]     c3        813
    x[20]     c4        634
    x[20]     c5        879
    x[20]     c6        957
    x[20]     c7        119
    x[20]     c8        777
    x[20]     c9        266
    x[20]     c10       426
    x[20]     c11       810
    x[20]     c1        178
    x[20]     OBJ       -735
    x[21]     c2        411
    x[21]     c3        167
    x[21]     c4        681
    x[21]     c5        974
    x[21]     c6        508
    x[21]     c7        550
    x[21]     c8        887
    x[21]     c9        375
    x[21]     c10       464
    x[21]     c11       534
    x[21]     c1        975
    x[21]     OBJ       -151
    x[22]     c2        887
    x[22]     c3        331
    x[22]     c4        62
    x[22]     c5        77
    x[22]     c6        595
    x[22]     c7        509
    x[22]     c8        496
    x[22]     c9        718
    x[22]     c10       243
    x[22]     c11       459
    x[22]     c1        226
    x[22]     OBJ       -661
    x[23]     c2        671
    x[23]     c3        320
    x[23]     c4        473
    x[23]     c5        41
    x[23]     c6        790
    x[23]     c7        353
    x[23]     c8        57
    x[23]     c9        495
    x[23]     c10       981
    x[23]     c11       967
    x[23]     c1        404
    x[23]     OBJ       -321
    x[24]     c2        544
    x[24]     c3        227
    x[24]     c4        766
    x[24]     c5        931
    x[24]     c6        816
    x[24]     c7        57
    x[24]     c8        818
    x[24]     c9        330
    x[24]     c10       175
    x[24]     c11       453
    x[24]     c1        833
    x[24]     OBJ       -56
    x[25]     c2        301
    x[25]     c3        463
    x[25]     c4        987
    x[25]     c5        771
    x[25]     c6        505
    x[25]     c7        230
    x[25]     c8        864
    x[25]     c9        958
    x[25]     c10       397
    x[25]     c11       239
    x[25]     c1        575
    x[25]     OBJ       -375
    x[26]     c2        868
    x[26]     c3        466
    x[26]     c4        323
    x[26]     c5        579
    x[26]     c6        435
    x[26]     c7        206
    x[26]     c8        85
    x[26]     c9        418
    x[26]     c10       709
    x[26]     c11       792
    x[26]     c1        340
    x[26]     OBJ       -412
    x[27]     c2        846
    x[27]     c3        144
    x[27]     c4        891
    x[27]     c5        257
    x[27]     c6        897
    x[27]     c7        609
    x[27]     c8        937
    x[27]     c9        376
    x[27]     c10       511
    x[27]     c11       446
    x[27]     c1        321
    x[27]     OBJ       -663
    x[28]     c2        99
    x[28]     c3        197
    x[28]     c4        494
    x[28]     c5        334
    x[28]     c6        341
    x[28]     c7        93
    x[28]     c8        788
    x[28]     c9        893
    x[28]     c10       130
    x[28]     c11       171
    x[28]     c1        580
    x[28]     OBJ       -146
    x[29]     c2        681
    x[29]     c3        309
    x[29]     c4        787
    x[29]     c5        48
    x[29]     c6        732
    x[29]     c7        147
    x[29]     c8        330
    x[29]     c9        410
    x[29]     c10       391
    x[29]     c11       431
    x[29]     c1        425
    x[29]     OBJ       -315
    x[30]     c2        466
    x[30]     c3        238
    x[30]     c4        335
    x[30]     c5        348
    x[30]     c6        678
    x[30]     c7        204
    x[30]     c8        111
    x[30]     c9        413
    x[30]     c10       61
    x[30]     c11       622
    x[30]     c1        955
    x[30]     OBJ       283
    x[31]     c2        506
    x[31]     c3        137
    x[31]     c4        131
    x[31]     c5        556
    x[31]     c6        288
    x[31]     c7        325
    x[31]     c8        759
    x[31]     c9        854
    x[31]     c10       856
    x[31]     c11       670
    x[31]     c1        739
    x[31]     OBJ       -114
    x[32]     c2        537
    x[32]     c3        279
    x[32]     c4        408
    x[32]     c5        220
    x[32]     c6        75
    x[32]     c7        159
    x[32]     c8        539
    x[32]     c9        550
    x[32]     c10       727
    x[32]     c11       271
    x[32]     c1        473
    x[32]     OBJ       -254
    x[33]     c2        78
    x[33]     c3        755
    x[33]     c4        546
    x[33]     c5        424
    x[33]     c6        559
    x[33]     c7        322
    x[33]     c8        224
    x[33]     c9        242
    x[33]     c10       541
    x[33]     c11       552
    x[33]     c1        946
    x[33]     OBJ       428
    x[34]     c2        820
    x[34]     c3        333
    x[34]     c4        718
    x[34]     c5        910
    x[34]     c6        131
    x[34]     c7        427
    x[34]     c8        786
    x[34]     c9        574
    x[34]     c10       27
    x[34]     c11       719
    x[34]     c1        666
    x[34]     OBJ       -374
    x[35]     c2        125
    x[35]     c3        510
    x[35]     c4        131
    x[35]     c5        85
    x[35]     c6        721
    x[35]     c7        290
    x[35]     c8        668
    x[35]     c9        308
    x[35]     c10       714
    x[35]     c11       506
    x[35]     c1        630
    x[35]     OBJ       -16
    x[36]     c2        589
    x[36]     c3        671
    x[36]     c4        191
    x[36]     c5        874
    x[36]     c6        707
    x[36]     c7        745
    x[36]     c8        858
    x[36]     c9        802
    x[36]     c10       728
    x[36]     c11       357
    x[36]     c1        462
    x[36]     OBJ       -525
    x[37]     c2        100
    x[37]     c3        905
    x[37]     c4        99
    x[37]     c5        277
    x[37]     c6        598
    x[37]     c7        93
    x[37]     c8        904
    x[37]     c9        753
    x[37]     c10       646
    x[37]     c11       774
    x[37]     c1        841
    x[37]     OBJ       -1
    x[38]     c2        366
    x[38]     c3        954
    x[38]     c4        224
    x[38]     c5        90
    x[38]     c6        22
    x[38]     c7        910
    x[38]     c8        669
    x[38]     c9        405
    x[38]     c10       434
    x[38]     c11       733
    x[38]     c1        2
    x[38]     OBJ       -568
    x[39]     c2        521
    x[39]     c3        533
    x[39]     c4        185
    x[39]     c5        839
    x[39]     c6        857
    x[39]     c7        505
    x[39]     c8        435
    x[39]     c9        98
    x[39]     c10       196
    x[39]     c11       909
    x[39]     c1        778
    x[39]     OBJ       -7
    x[40]     c2        810
    x[40]     c3        29
    x[40]     c4        197
    x[40]     c5        745
    x[40]     c6        272
    x[40]     c7        406
    x[40]     c8        251
    x[40]     c9        942
    x[40]     c10       198
    x[40]     c11       907
    x[40]     c1        714
    x[40]     OBJ       -203
    x[41]     c2        330
    x[41]     c3        933
    x[41]     c4        549
    x[41]     c5        512
    x[41]     c6        346
    x[41]     c7        16
    x[41]     c8        283
    x[41]     c9        261
    x[41]     c10       60
    x[41]     c11       96
    x[41]     c1        855
    x[41]     OBJ       -180
    x[42]     c2        632
    x[42]     c3        186
    x[42]     c4        705
    x[42]     c5        569
    x[42]     c6        263
    x[42]     c7        160
    x[42]     c8        971
    x[42]     c9        624
    x[42]     c10       776
    x[42]     c11       995
    x[42]     c1        768
    x[42]     OBJ       -227
    x[43]     c2        857
    x[43]     c3        338
    x[43]     c4        38
    x[43]     c5        148
    x[43]     c6        798
    x[43]     c7        899
    x[43]     c8        440
    x[43]     c9        461
    x[43]     c10       768
    x[43]     c11       243
    x[43]     c1        141
    x[43]     OBJ       -607
    x[44]     c2        718
    x[44]     c3        801
    x[44]     c4        256
    x[44]     c5        936
    x[44]     c6        288
    x[44]     c7        290
    x[44]     c8        858
    x[44]     c9        179
    x[44]     c10       333
    x[44]     c11       87
    x[44]     c1        847
    x[44]     OBJ       -77
    x[45]     c2        326
    x[45]     c3        694
    x[45]     c4        870
    x[45]     c5        78
    x[45]     c6        67
    x[45]     c7        882
    x[45]     c8        980
    x[45]     c9        678
    x[45]     c10       468
    x[45]     c11       985
    x[45]     c1        325
    x[45]     OBJ       -688
    x[46]     c2        453
    x[46]     c3        768
    x[46]     c4        290
    x[46]     c5        567
    x[46]     c6        721
    x[46]     c7        572
    x[46]     c8        145
    x[46]     c9        85
    x[46]     c10       479
    x[46]     c11       219
    x[46]     c1        765
    x[46]     OBJ       -189
    x[47]     c2        26
    x[47]     c3        790
    x[47]     c4        812
    x[47]     c5        89
    x[47]     c6        630
    x[47]     c7        163
    x[47]     c8        551
    x[47]     c9        237
    x[47]     c10       535
    x[47]     c11       392
    x[47]     c1        10
    x[47]     OBJ       -885
    x[48]     c2        649
    x[48]     c3        969
    x[48]     c4        984
    x[48]     c5        43
    x[48]     c6        960
    x[48]     c7        699
    x[48]     c8        317
    x[48]     c9        154
    x[48]     c10       98
    x[48]     c11       261
    x[48]     c1        162
    x[48]     OBJ       -482
    x[49]     c2        337
    x[49]     c3        704
    x[49]     c4        299
    x[49]     c5        841
    x[49]     c6        143
    x[49]     c7        76
    x[49]     c8        683
    x[49]     c9        342
    x[49]     c10       478
    x[49]     c11       284
    x[49]     c1        208
    x[49]     OBJ       -467
    x[50]     c2        7
    x[50]     c3        962
    x[50]     c4        636
    x[50]     c5        734
    x[50]     c6        762
    x[50]     c7        406
    x[50]     c8        148
    x[50]     c9        419
    x[50]     c10       557
    x[50]     c11       638
    x[50]     c1        981
    x[50]     OBJ       369
    x[51]     c2        216
    x[51]     c3        527
    x[51]     c4        108
    x[51]     c5        283
    x[51]     c6        643
    x[51]     c7        673
    x[51]     c8        846
    x[51]     c9        585
    x[51]     c10       757
    x[51]     c11       722
    x[51]     c1        638
    x[51]     OBJ       -188
    x[52]     c2        355
    x[52]     c3        184
    x[52]     c4        716
    x[52]     c5        197
    x[52]     c6        130
    x[52]     c7        451
    x[52]     c8        763
    x[52]     c9        119
    x[52]     c10       366
    x[52]     c11       293
    x[52]     c1        184
    x[52]     OBJ       -399
    x[53]     c2        200
    x[53]     c3        479
    x[53]     c4        737
    x[53]     c5        730
    x[53]     c6        509
    x[53]     c7        436
    x[53]     c8        279
    x[53]     c9        725
    x[53]     c10       204
    x[53]     c11       41
    x[53]     c1        124
    x[53]     OBJ       -386
    x[54]     c2        376
    x[54]     c3        456
    x[54]     c4        672
    x[54]     c5        187
    x[54]     c6        829
    x[54]     c7        693
    x[54]     c8        768
    x[54]     c9        263
    x[54]     c10       987
    x[54]     c11       693
    x[54]     c1        910
    x[54]     OBJ       -72
    x[55]     c2        239
    x[55]     c3        927
    x[55]     c4        778
    x[55]     c5        368
    x[55]     c6        67
    x[55]     c7        74
    x[55]     c8        762
    x[55]     c9        419
    x[55]     c10       604
    x[55]     c11       887
    x[55]     c1        332
    x[55]     OBJ       -239
    x[56]     c2        969
    x[56]     c3        333
    x[56]     c4        528
    x[56]     c5        94
    x[56]     c6        245
    x[56]     c7        760
    x[56]     c8        63
    x[56]     c9        152
    x[56]     c10       895
    x[56]     c11       270
    x[56]     c1        634
    x[56]     OBJ       -17
    x[57]     c2        770
    x[57]     c3        380
    x[57]     c4        610
    x[57]     c5        463
    x[57]     c6        832
    x[57]     c7        830
    x[57]     c8        893
    x[57]     c9        913
    x[57]     c10       284
    x[57]     c11       361
    x[57]     c1        555
    x[57]     OBJ       -301
    x[58]     c2        481
    x[58]     c3        559
    x[58]     c4        737
    x[58]     c5        391
    x[58]     c6        312
    x[58]     c7        263
    x[58]     c8        977
    x[58]     c9        791
    x[58]     c10       271
    x[58]     c11       354
    x[58]     c1        55
    x[58]     OBJ       -729
    x[59]     c2        264
    x[59]     c3        836
    x[59]     c4        938
    x[59]     c5        469
    x[59]     c6        977
    x[59]     c7        928
    x[59]     c8        234
    x[59]     c9        371
    x[59]     c10       218
    x[59]     c11       398
    x[59]     c1        396
    x[59]     OBJ       -627
    x[60]     c2        894
    x[60]     c3        537
    x[60]     c4        439
    x[60]     c5        492
    x[60]     c6        256
    x[60]     c7        737
    x[60]     c8        964
    x[60]     c9        274
    x[60]     c10       67
    x[60]     c11       437
    x[60]     c1        23
    x[60]     OBJ       -713
    x[61]     c2        618
    x[61]     c3        128
    x[61]     c4        273
    x[61]     c5        913
    x[61]     c6        933
    x[61]     c7        223
    x[61]     c8        523
    x[61]     c9        200
    x[61]     c10       22
    x[61]     c11       795
    x[61]     c1        171
    x[61]     OBJ       -610
    x[62]     c2        667
    x[62]     c3        930
    x[62]     c4        83
    x[62]     c5        533
    x[62]     c6        958
    x[62]     c7        43
    x[62]     c8        674
    x[62]     c9        464
    x[62]     c10       986
    x[62]     c11       69
    x[62]     c1        310
    x[62]     OBJ       -647
    x[63]     c2        136
    x[63]     c3        602
    x[63]     c4        648
    x[63]     c5        259
    x[63]     c6        981
    x[63]     c7        939
    x[63]     c8        318
    x[63]     c9        244
    x[63]     c10       402
    x[63]     c11       127
    x[63]     c1        181
    x[63]     OBJ       -458
    x[64]     c2        473
    x[64]     c3        294
    x[64]     c4        112
    x[64]     c5        803
    x[64]     c6        238
    x[64]     c7        657
    x[64]     c8        581
    x[64]     c9        128
    x[64]     c10       876
    x[64]     c11       491
    x[64]     c1        378
    x[64]     OBJ       -224
    x[65]     c2        860
    x[65]     c3        36
    x[65]     c4        717
    x[65]     c5        513
    x[65]     c6        331
    x[65]     c7        369
    x[65]     c8        946
    x[65]     c9        437
    x[65]     c10       29
    x[65]     c11       28
    x[65]     c1        600
    x[65]     OBJ       -235
    x[66]     c2        919
    x[66]     c3        755
    x[66]     c4        516
    x[66]     c5        462
    x[66]     c6        972
    x[66]     c7        348
    x[66]     c8        638
    x[66]     c9        959
    x[66]     c10       313
    x[66]     c11       87
    x[66]     c1        742
    x[66]     OBJ       -202
    x[67]     c2        487
    x[67]     c3        866
    x[67]     c4        40
    x[67]     c5        8
    x[67]     c6        148
    x[67]     c7        469
    x[67]     c8        957
    x[67]     c9        513
    x[67]     c10       355
    x[67]     c11       2
    x[67]     c1        275
    x[67]     OBJ       -526
    x[68]     c2        994
    x[68]     c3        79
    x[68]     c4        698
    x[68]     c5        557
    x[68]     c6        528
    x[68]     c7        865
    x[68]     c8        628
    x[68]     c9        938
    x[68]     c10       394
    x[68]     c11       433
    x[68]     c1        601
    x[68]     OBJ       -113
    x[69]     c2        232
    x[69]     c3        892
    x[69]     c4        189
    x[69]     c5        832
    x[69]     c6        244
    x[69]     c7        989
    x[69]     c8        311
    x[69]     c9        796
    x[69]     c10       69
    x[69]     c11       817
    x[69]     c1        951
    x[69]     OBJ       371
    x[70]     c2        198
    x[70]     c3        893
    x[70]     c4        863
    x[70]     c5        678
    x[70]     c6        5
    x[70]     c7        866
    x[70]     c8        913
    x[70]     c9        665
    x[70]     c10       812
    x[70]     c11       593
    x[70]     c1        731
    x[70]     OBJ       -48
    x[71]     c2        117
    x[71]     c3        17
    x[71]     c4        433
    x[71]     c5        359
    x[71]     c6        184
    x[71]     c7        926
    x[71]     c8        65
    x[71]     c9        453
    x[71]     c10       571
    x[71]     c11       480
    x[71]     c1        166
    x[71]     OBJ       -546
    x[72]     c2        500
    x[72]     c3        212
    x[72]     c4        46
    x[72]     c5        616
    x[72]     c6        997
    x[72]     c7        647
    x[72]     c8        894
    x[72]     c9        694
    x[72]     c10       987
    x[72]     c11       733
    x[72]     c1        659
    x[72]     OBJ       -436
    x[73]     c2        160
    x[73]     c3        727
    x[73]     c4        487
    x[73]     c5        324
    x[73]     c6        631
    x[73]     c7        644
    x[73]     c8        57
    x[73]     c9        350
    x[73]     c10       312
    x[73]     c11       500
    x[73]     c1        15
    x[73]     OBJ       -595
    x[74]     c2        159
    x[74]     c3        337
    x[74]     c4        472
    x[74]     c5        924
    x[74]     c6        317
    x[74]     c7        40
    x[74]     c8        30
    x[74]     c9        756
    x[74]     c10       521
    x[74]     c11       378
    x[74]     c1        230
    x[74]     OBJ       -497
    x[75]     c2        69
    x[75]     c3        873
    x[75]     c4        947
    x[75]     c5        15
    x[75]     c6        901
    x[75]     c7        124
    x[75]     c8        820
    x[75]     c9        469
    x[75]     c10       241
    x[75]     c11       283
    x[75]     c1        577
    x[75]     OBJ       -164
    x[76]     c2        594
    x[76]     c3        114
    x[76]     c4        169
    x[76]     c5        978
    x[76]     c6        314
    x[76]     c7        73
    x[76]     c8        136
    x[76]     c9        114
    x[76]     c10       571
    x[76]     c11       922
    x[76]     c1        807
    x[76]     OBJ       276
    x[77]     c2        656
    x[77]     c3        288
    x[77]     c4        544
    x[77]     c5        713
    x[77]     c6        515
    x[77]     c7        772
    x[77]     c8        352
    x[77]     c9        827
    x[77]     c10       384
    x[77]     c11       680
    x[77]     c1        420
    x[77]     OBJ       -526
    x[78]     c2        76
    x[78]     c3        602
    x[78]     c4        867
    x[78]     c5        861
    x[78]     c6        12
    x[78]     c7        478
    x[78]     c8        615
    x[78]     c9        634
    x[78]     c10       86
    x[78]     c11       691
    x[78]     c1        862
    x[78]     OBJ       -165
    x[79]     c2        511
    x[79]     c3        704
    x[79]     c4        314
    x[79]     c5        444
    x[79]     c6        785
    x[79]     c7        431
    x[79]     c8        574
    x[79]     c9        814
    x[79]     c10       421
    x[79]     c11       358
    x[79]     c1        974
    x[79]     OBJ       -95
    x[80]     c2        65
    x[80]     c3        948
    x[80]     c4        631
    x[80]     c5        429
    x[80]     c6        930
    x[80]     c7        207
    x[80]     c8        940
    x[80]     c9        677
    x[80]     c10       956
    x[80]     c11       216
    x[80]     c1        991
    x[80]     OBJ       -194
    x[81]     c2        138
    x[81]     c3        761
    x[81]     c4        683
    x[81]     c5        70
    x[81]     c6        44
    x[81]     c7        403
    x[81]     c8        858
    x[81]     c9        35
    x[81]     c10       68
    x[81]     c11       629
    x[81]     c1        795
    x[81]     OBJ       384
    x[82]     c2        715
    x[82]     c3        217
    x[82]     c4        539
    x[82]     c5        821
    x[82]     c6        714
    x[82]     c7        101
    x[82]     c8        414
    x[82]     c9        450
    x[82]     c10       872
    x[82]     c11       627
    x[82]     c1        938
    x[82]     OBJ       269
    x[83]     c2        766
    x[83]     c3        162
    x[83]     c4        834
    x[83]     c5        104
    x[83]     c6        448
    x[83]     c7        264
    x[83]     c8        277
    x[83]     c9        261
    x[83]     c10       1000
    x[83]     c11       404
    x[83]     c1        792
    x[83]     OBJ       -72
    x[84]     c2        921
    x[84]     c3        908
    x[84]     c4        534
    x[84]     c5        746
    x[84]     c6        300
    x[84]     c7        420
    x[84]     c8        938
    x[84]     c9        32
    x[84]     c10       635
    x[84]     c11       457
    x[84]     c1        647
    x[84]     OBJ       -29
    x[85]     c2        519
    x[85]     c3        292
    x[85]     c4        298
    x[85]     c5        514
    x[85]     c6        590
    x[85]     c7        508
    x[85]     c8        836
    x[85]     c9        658
    x[85]     c10       547
    x[85]     c11       145
    x[85]     c1        59
    x[85]     OBJ       -438
    x[86]     c2        301
    x[86]     c3        559
    x[86]     c4        779
    x[86]     c5        378
    x[86]     c6        709
    x[86]     c7        508
    x[86]     c8        263
    x[86]     c9        236
    x[86]     c10       822
    x[86]     c11       41
    x[86]     c1        991
    x[86]     OBJ       317
    x[87]     c2        902
    x[87]     c3        927
    x[87]     c4        705
    x[87]     c5        143
    x[87]     c6        714
    x[87]     c7        128
    x[87]     c8        572
    x[87]     c9        851
    x[87]     c10       114
    x[87]     c11       610
    x[87]     c1        759
    x[87]     OBJ       -198
    x[88]     c2        818
    x[88]     c3        920
    x[88]     c4        928
    x[88]     c5        622
    x[88]     c6        399
    x[88]     c7        986
    x[88]     c8        943
    x[88]     c9        112
    x[88]     c10       400
    x[88]     c11       14
    x[88]     c1        627
    x[88]     OBJ       -444
    x[89]     c2        366
    x[89]     c3        186
    x[89]     c4        358
    x[89]     c5        690
    x[89]     c6        418
    x[89]     c7        700
    x[89]     c8        594
    x[89]     c9        31
    x[89]     c10       754
    x[89]     c11       613
    x[89]     c1        328
    x[89]     OBJ       -231
    x[90]     c2        529
    x[90]     c3        446
    x[90]     c4        510
    x[90]     c5        489
    x[90]     c6        195
    x[90]     c7        333
    x[90]     c8        113
    x[90]     c9        471
    x[90]     c10       12
    x[90]     c11       188
    x[90]     c1        902
    x[90]     OBJ       -34
    x[91]     c2        227
    x[91]     c3        404
    x[91]     c4        898
    x[91]     c5        60
    x[91]     c6        974
    x[91]     c7        152
    x[91]     c8        855
    x[91]     c9        885
    x[91]     c10       512
    x[91]     c11       332
    x[91]     c1        629
    x[91]     OBJ       -319
    x[92]     c2        312
    x[92]     c3        244
    x[92]     c4        286
    x[92]     c5        784
    x[92]     c6        663
    x[92]     c7        840
    x[92]     c8        22
    x[92]     c9        24
    x[92]     c10       956
    x[92]     c11       285
    x[92]     c1        510
    x[92]     OBJ       -156
    x[93]     c2        172
    x[93]     c3        127
    x[93]     c4        166
    x[93]     c5        68
    x[93]     c6        155
    x[93]     c7        627
    x[93]     c8        87
    x[93]     c9        819
    x[93]     c10       22
    x[93]     c11       403
    x[93]     c1        103
    x[93]     OBJ       -208
    x[94]     c2        934
    x[94]     c3        86
    x[94]     c4        272
    x[94]     c5        461
    x[94]     c6        787
    x[94]     c7        70
    x[94]     c8        272
    x[94]     c9        581
    x[94]     c10       144
    x[94]     c11       68
    x[94]     c1        788
    x[94]     OBJ       -13
    x[95]     c2        354
    x[95]     c3        514
    x[95]     c4        239
    x[95]     c5        71
    x[95]     c6        299
    x[95]     c7        996
    x[95]     c8        715
    x[95]     c9        381
    x[95]     c10       658
    x[95]     c11       360
    x[95]     c1        73
    x[95]     OBJ       -762
    x[96]     c2        519
    x[96]     c3        683
    x[96]     c4        604
    x[96]     c5        550
    x[96]     c6        4
    x[96]     c7        413
    x[96]     c8        433
    x[96]     c9        385
    x[96]     c10       616
    x[96]     c11       788
    x[96]     c1        379
    x[96]     OBJ       -142
    x[97]     c2        911
    x[97]     c3        172
    x[97]     c4        9
    x[97]     c5        488
    x[97]     c6        47
    x[97]     c7        644
    x[97]     c8        243
    x[97]     c9        354
    x[97]     c10       904
    x[97]     c11       88
    x[97]     c1        573
    x[97]     OBJ       -29
    x[98]     c2        250
    x[98]     c3        673
    x[98]     c4        920
    x[98]     c5        3
    x[98]     c6        770
    x[98]     c7        240
    x[98]     c8        340
    x[98]     c9        281
    x[98]     c10       687
    x[98]     c11       215
    x[98]     c1        783
    x[98]     OBJ       -70
    x[99]     c2        672
    x[99]     c3        913
    x[99]     c4        788
    x[99]     c5        268
    x[99]     c6        211
    x[99]     c7        30
    x[99]     c8        689
    x[99]     c9        146
    x[99]     c10       549
    x[99]     c11       196
    x[99]     c1        310
    x[99]     OBJ       -318
    x[100]    c2        646
    x[100]    c3        485
    x[100]    c4        673
    x[100]    c5        538
    x[100]    c6        918
    x[100]    c7        250
    x[100]    c8        437
    x[100]    c9        761
    x[100]    c10       889
    x[100]    c11       186
    x[100]    c1        38
    x[100]    OBJ       -819
RHS
    rhs       c2        12580
    rhs       c3        12919
    rhs       c4        12964
    rhs       c5        11745
    rhs       c6        12501
    rhs       c7        11434
    rhs       c8        13295
    rhs       c9        12220
    rhs       c10       12257
    rhs       c11       11454
    rhs       c1        12839
RANGES
BOUNDS
 LO bounds    ss[1]     0
 PL bounds    ss[1]
 MI bounds    s[1]
 UP bounds    s[1]      0
 MI bounds    s[2]
 UP bounds    s[2]      0
 MI bounds    s[3]
 UP bounds    s[3]      0
 MI bounds    s[4]
 UP bounds    s[4]      0
 MI bounds    s[5]
 UP bounds    s[5]      0
 MI bounds    s[6]
 UP bounds    s[6]      0
 MI bounds    s[7]
 UP bounds    s[7]      0
 MI bounds    s[8]
 UP bounds    s[8]      0
 MI bounds    s[9]
 UP bounds    s[9]      0
 MI bounds    s[10]
 UP bounds    s[10]     0
 BV bounds    x[1]
 BV bounds    x[2]
 BV bounds    x[3]
 BV bounds    x[4]
 BV bounds    x[5]
 BV bounds    x[6]
 BV bounds    x[7]
 BV bounds    x[8]
 BV bounds    x[9]
 BV bounds    x[10]
 BV bounds    x[11]
 BV bounds    x[12]
 BV bounds    x[13]
 BV bounds    x[14]
 BV bounds    x[15]
 BV bounds    x[16]
 BV bounds    x[17]
 BV bounds    x[18]
 BV bounds    x[19]
 BV bounds    x[20]
 BV bounds    x[21]
 BV bounds    x[22]
 BV bounds    x[23]
 BV bounds    x[24]
 BV bounds    x[25]
 BV bounds    x[26]
 BV bounds    x[27]
 BV bounds    x[28]
 BV bounds    x[29]
 BV bounds    x[30]
 BV bounds    x[31]
 BV bounds    x[32]
 BV bounds    x[33]
 BV bounds    x[34]
 BV bounds    x[35]
 BV bounds    x[36]
 BV bounds    x[37]
 BV bounds    x[38]
 BV bounds    x[39]
 BV bounds    x[40]
 BV bounds    x[41]
 BV bounds    x[42]
 BV bounds    x[43]
 BV bounds    x[44]
 BV bounds    x[45]
 BV bounds    x[46]
 BV bounds    x[47]
 BV bounds    x[48]
 BV bounds    x[49]
 BV bounds    x[50]
 BV bounds    x[51]
 BV bounds    x[52]
 BV bounds    x[53]
 BV bounds    x[54]
 BV bounds    x[55]
 BV bounds    x[56]
 BV bounds    x[57]
 BV bounds    x[58]
 BV bounds    x[59]
 BV bounds    x[60]
 BV bounds    x[61]
 BV bounds    x[62]
 BV bounds    x[63]
 BV bounds    x[64]
 BV bounds    x[65]
 BV bounds    x[66]
 BV bounds    x[67]
 BV bounds    x[68]
 BV bounds    x[69]
 BV bounds    x[70]
 BV bounds    x[71]
 BV bounds    x[72]
 BV bounds    x[73]
 BV bounds    x[74]
 BV bounds    x[75]
 BV bounds    x[76]
 BV bounds    x[77]
 BV bounds    x[78]
 BV bounds    x[79]
 BV bounds    x[80]
 BV bounds    x[81]
 BV bounds    x[82]
 BV bounds    x[83]
 BV bounds    x[84]
 BV bounds    x[85]
 BV bounds    x[86]
 BV bounds    x[87]
 BV bounds    x[88]
 BV bounds    x[89]
 BV bounds    x[90]
 BV bounds    x[91]
 BV bounds    x[92]
 BV bounds    x[93]
 BV bounds    x[94]
 BV bounds    x[95]
 BV bounds    x[96]
 BV bounds    x[97]
 BV bounds    x[98]
 BV bounds    x[99]
 BV bounds    x[100]
ENDATA
